SECTION Graph
Nodes 670
Edges 1316
E 1 12 77
E 1 532 1
E 1 535 2
E 1 542 6
E 2 532 6
E 2 542 1
E 3 535 6
E 3 542 2
E 3 606 120
E 4 564 2
E 4 566 1
E 4 567 1
E 4 585 20
E 5 7 1
E 5 581 1
E 5 594 20
E 5 605 77
E 6 8 1
E 6 566 1
E 6 567 1
E 6 574 6
E 7 9 1
E 7 580 1
E 7 604 77
E 8 435 116
E 8 565 1
E 8 573 6
E 9 455 116
E 9 579 1
E 9 603 77
E 10 11 1
E 10 22 1
E 10 354 52
E 10 427 2
E 11 23 1
E 11 429 2
E 11 430 2
E 12 449 1
E 12 450 1
E 12 455 2
E 13 20 52
E 13 431 6
E 13 440 1
E 13 448 5
E 14 435 6
E 14 440 2
E 14 453 5
E 14 573 116
E 15 27 5
E 15 585 24
E 15 598 1
E 15 599 1
E 16 600 11
E 16 602 1
E 17 352 3
E 17 356 1
E 17 360 1
E 17 363 6
E 18 363 5
E 18 371 1
E 19 356 6
E 19 363 1
E 20 360 6
E 20 363 1
E 20 371 5
E 21 46 5
E 21 404 1
E 21 408 1
E 21 409 2
E 22 23 1
E 22 351 52
E 22 419 2
E 23 421 2
E 23 426 2
E 24 37 52
E 24 406 5
E 24 414 1
E 24 416 6
E 25 410 5
E 25 414 2
E 25 422 6
E 25 550 116
E 26 590 1
E 26 591 1
E 26 596 11
E 27 583 24
E 27 595 1
E 27 597 1
E 28 30 1
E 28 39 5
E 28 546 1
E 28 569 20
E 29 557 1
E 29 558 1
E 29 562 2
E 29 583 20
E 30 32 1
E 30 41 5
E 30 545 1
E 31 33 1
E 31 551 6
E 31 557 1
E 31 558 1
E 32 43 5
E 32 409 116
E 32 544 1
E 33 422 116
E 33 550 6
E 33 556 1
E 34 332 1
E 34 333 1
E 34 337 1
E 34 339 5
E 35 339 6
E 35 342 1
E 35 345 1
E 35 349 3
E 36 333 5
E 36 339 1
E 36 342 6
E 37 337 5
E 37 339 1
E 37 345 6
E 38 49 44
E 38 524 2
E 38 526 1
E 38 527 1
E 39 41 1
E 39 541 1
E 39 586 44
E 40 42 1
E 40 526 1
E 40 527 1
E 40 533 6
E 41 43 1
E 41 540 1
E 42 384 116
E 42 525 1
E 42 531 6
E 43 402 116
E 43 539 1
E 44 45 1
E 44 56 1
E 44 305 52
E 44 377 2
E 45 57 1
E 45 379 2
E 45 380 2
E 46 398 1
E 46 399 1
E 46 402 2
E 47 54 52
E 47 381 6
E 47 389 1
E 47 397 5
E 48 384 6
E 48 389 2
E 48 401 5
E 48 531 116
E 49 61 5
E 49 576 1
E 49 577 1
E 50 578 11
E 50 584 1
E 50 588 1
E 51 303 3
E 51 307 1
E 51 311 1
E 51 314 6
E 52 314 5
E 52 316 1
E 52 321 1
E 52 322 1
E 53 307 6
E 53 314 1
E 53 316 5
E 54 311 6
E 54 314 1
E 54 321 5
E 55 80 5
E 55 353 1
E 55 357 1
E 55 359 2
E 56 57 1
E 56 302 52
E 56 368 2
E 57 370 2
E 57 376 2
E 58 71 52
E 58 355 5
E 58 362 1
E 58 365 6
E 59 361 5
E 59 362 2
E 59 372 6
E 59 510 116
E 60 554 1
E 60 555 1
E 60 570 11
E 61 63 44
E 61 568 1
E 61 572 1
E 62 64 1
E 62 73 5
E 62 506 1
E 62 553 44
E 63 517 1
E 63 518 1
E 63 522 2
E 64 66 1
E 64 75 5
E 64 505 1
E 65 67 1
E 65 511 6
E 65 517 1
E 65 518 1
E 66 77 5
E 66 359 116
E 66 504 1
E 67 372 116
E 67 510 6
E 67 516 1
E 68 283 1
E 68 284 1
E 68 288 1
E 68 290 5
E 69 290 6
E 69 293 1
E 69 296 1
E 69 300 3
E 70 284 5
E 70 290 1
E 70 293 6
E 71 288 5
E 71 290 1
E 71 296 6
E 72 83 44
E 72 487 2
E 72 489 1
E 72 490 1
E 73 75 1
E 73 502 1
E 73 548 44
E 74 76 1
E 74 489 1
E 74 490 1
E 74 495 6
E 75 77 1
E 75 501 1
E 76 338 116
E 76 488 1
E 76 494 6
E 77 348 116
E 77 500 1
E 78 79 1
E 78 90 1
E 78 256 52
E 78 327 2
E 79 91 1
E 79 329 2
E 79 330 2
E 80 343 1
E 80 344 1
E 80 348 2
E 81 88 52
E 81 331 6
E 81 340 1
E 81 341 5
E 82 338 6
E 82 340 2
E 82 346 5
E 82 494 116
E 83 95 5
E 83 536 1
E 83 537 1
E 84 538 11
E 84 547 1
E 84 549 1
E 85 254 3
E 85 258 1
E 85 262 1
E 85 265 6
E 86 265 5
E 86 267 1
E 86 272 1
E 86 273 1
E 87 258 6
E 87 265 1
E 87 267 5
E 88 262 6
E 88 265 1
E 88 272 5
E 89 114 5
E 89 304 1
E 89 308 1
E 89 310 2
E 90 91 1
E 90 253 52
E 90 318 2
E 91 320 2
E 91 326 2
E 92 105 52
E 92 306 5
E 92 313 1
E 92 315 6
E 93 312 5
E 93 313 2
E 93 323 6
E 93 473 116
E 94 514 1
E 94 515 1
E 94 529 11
E 95 97 44
E 95 528 1
E 95 530 1
E 96 98 1
E 96 107 5
E 96 469 1
E 96 513 44
E 97 480 1
E 97 481 1
E 97 485 2
E 98 100 1
E 98 109 5
E 98 468 1
E 99 101 1
E 99 474 6
E 99 480 1
E 99 481 1
E 100 111 5
E 100 310 116
E 100 467 1
E 101 323 116
E 101 473 6
E 101 479 1
E 102 234 1
E 102 235 1
E 102 239 1
E 102 241 5
E 103 241 6
E 103 244 1
E 103 247 1
E 103 251 3
E 104 235 5
E 104 241 1
E 104 244 6
E 105 239 5
E 105 241 1
E 105 247 6
E 106 117 44
E 106 445 2
E 106 447 1
E 106 451 1
E 107 109 1
E 107 465 1
E 107 508 44
E 108 110 1
E 108 447 1
E 108 451 1
E 108 458 6
E 109 111 1
E 109 464 1
E 110 289 116
E 110 446 1
E 110 457 6
E 111 299 116
E 111 463 1
E 112 113 1
E 112 124 1
E 112 207 52
E 112 278 2
E 113 125 1
E 113 280 2
E 113 281 2
E 114 294 1
E 114 295 1
E 114 299 2
E 115 122 52
E 115 282 6
E 115 291 1
E 115 292 5
E 116 289 6
E 116 291 2
E 116 297 5
E 116 457 116
E 117 129 5
E 117 497 1
E 117 498 1
E 118 499 11
E 118 507 1
E 118 509 1
E 119 206 3
E 119 209 1
E 119 213 1
E 119 216 6
E 120 216 5
E 120 218 1
E 120 223 1
E 120 224 1
E 121 209 6
E 121 216 1
E 121 218 5
E 122 213 6
E 122 216 1
E 122 223 5
E 123 148 5
E 123 255 1
E 123 259 1
E 123 261 2
E 124 125 1
E 124 205 52
E 124 269 2
E 125 271 2
E 125 277 2
E 126 139 52
E 126 257 5
E 126 264 1
E 126 266 6
E 127 263 5
E 127 264 2
E 127 274 6
E 127 424 116
E 128 477 1
E 128 478 1
E 128 492 11
E 129 131 44
E 129 491 1
E 129 493 1
E 130 132 1
E 130 141 5
E 130 420 1
E 130 476 44
E 131 437 1
E 131 438 1
E 131 443 2
E 132 134 1
E 132 143 5
E 132 417 1
E 133 135 1
E 133 425 6
E 133 437 1
E 133 438 1
E 134 145 5
E 134 261 116
E 134 415 1
E 135 274 116
E 135 424 6
E 135 436 1
E 136 195 1
E 136 196 1
E 136 198 1
E 136 199 5
E 137 199 6
E 137 200 1
E 137 201 1
E 137 203 3
E 138 196 5
E 138 199 1
E 138 200 6
E 139 198 5
E 139 199 1
E 139 201 6
E 140 151 44
E 140 394 2
E 140 396 1
E 140 400 1
E 141 143 1
E 141 413 1
E 141 471 44
E 142 144 1
E 142 396 1
E 142 400 1
E 142 405 6
E 143 145 1
E 143 412 1
E 144 240 116
E 144 395 1
E 144 403 6
E 145 250 116
E 145 411 1
E 146 147 1
E 146 158 1
E 146 184 52
E 146 229 2
E 147 159 1
E 147 231 2
E 147 232 2
E 148 245 1
E 148 246 1
E 148 250 2
E 149 156 52
E 149 233 6
E 149 242 1
E 149 243 5
E 150 240 6
E 150 242 2
E 150 248 5
E 150 403 116
E 151 163 5
E 151 460 1
E 151 461 1
E 152 462 11
E 152 470 1
E 152 472 1
E 153 183 3
E 153 185 1
E 153 187 1
E 153 188 6
E 154 188 5
E 154 189 1
E 154 191 1
E 154 192 1
E 155 185 6
E 155 188 1
E 155 189 5
E 156 187 6
E 156 188 1
E 156 191 5
E 157 210 1
E 157 212 2
E 158 159 1
E 158 182 52
E 158 220 2
E 159 222 2
E 159 228 2
E 160 173 52
E 160 208 5
E 160 215 1
E 160 217 6
E 161 214 5
E 161 215 2
E 161 225 6
E 161 374 116
E 162 434 1
E 162 454 11
E 163 165 44
E 163 452 1
E 163 456 1
E 164 166 1
E 164 369 1
E 165 386 1
E 165 387 1
E 165 392 2
E 166 168 1
E 166 366 1
E 167 169 1
E 167 375 6
E 167 386 1
E 167 387 1
E 168 212 116
E 168 364 1
E 169 225 116
E 169 374 6
E 169 385 1
E 170 175 1
E 170 176 5
E 171 176 6
E 171 177 1
E 171 178 1
E 171 180 3
E 172 176 1
E 172 177 6
E 173 175 5
E 173 176 1
E 173 178 6
E 174 594 79
E 174 608 20
E 175 208 52
E 177 179 3
E 178 182 3
E 178 217 52
E 179 180 1
E 179 181 1
E 180 182 1
E 180 183 1
E 181 183 1
E 181 185 3
E 182 184 1
E 183 184 1
E 184 186 2
E 186 187 1
E 186 229 52
E 187 233 52
E 189 190 1
E 190 192 1
E 190 194 5
E 191 193 1
E 191 243 52
E 192 193 1
E 192 195 5
E 193 197 5
E 193 246 52
E 194 195 1
E 194 196 1
E 195 197 1
E 197 198 1
E 197 255 52
E 198 257 52
E 200 202 3
E 201 205 3
E 201 266 52
E 202 203 1
E 202 204 1
E 203 205 1
E 203 206 1
E 204 206 1
E 204 209 3
E 205 207 1
E 206 207 1
E 207 211 2
E 208 210 1
E 210 214 2
E 210 215 5
E 211 213 1
E 211 278 52
E 212 214 1
E 213 282 52
E 214 364 116
E 215 219 6
E 217 219 1
E 217 220 1
E 218 221 1
E 219 222 1
E 219 225 2
E 220 222 1
E 221 224 1
E 221 230 5
E 222 227 2
E 223 226 1
E 223 292 52
E 224 226 1
E 224 234 5
E 225 227 1
E 226 237 5
E 226 295 52
E 227 228 2
E 227 385 116
E 228 231 1
E 228 388 116
E 229 232 1
E 229 233 1
E 230 234 1
E 230 235 1
E 231 238 2
E 231 391 116
E 232 236 1
E 232 238 2
E 233 236 1
E 234 237 1
E 236 240 2
E 236 242 6
E 237 239 1
E 237 304 52
E 238 240 1
E 238 395 116
E 239 306 52
E 242 245 5
E 243 245 1
E 243 246 1
E 244 249 3
E 245 248 2
E 246 255 5
E 247 253 3
E 247 315 52
E 248 250 1
E 248 411 116
E 249 251 1
E 249 252 1
E 250 261 5
E 251 253 1
E 251 254 1
E 252 254 1
E 252 258 3
E 253 256 1
E 254 256 1
E 255 257 1
E 256 260 2
E 257 259 1
E 259 263 2
E 259 264 5
E 260 262 1
E 260 327 52
E 261 263 1
E 262 331 52
E 263 415 116
E 264 268 6
E 266 268 1
E 266 269 1
E 267 270 1
E 268 271 1
E 268 274 2
E 269 271 1
E 270 273 1
E 270 279 5
E 271 276 2
E 272 275 1
E 272 341 52
E 273 275 1
E 273 283 5
E 274 276 1
E 275 286 5
E 275 344 52
E 276 277 2
E 276 436 116
E 277 280 1
E 277 439 116
E 278 281 1
E 278 282 1
E 279 283 1
E 279 284 1
E 280 287 2
E 280 442 116
E 281 285 1
E 281 287 2
E 282 285 1
E 283 286 1
E 285 289 2
E 285 291 6
E 286 288 1
E 286 353 52
E 287 289 1
E 287 446 116
E 288 355 52
E 291 294 5
E 292 294 1
E 292 295 1
E 293 298 3
E 294 297 2
E 295 304 5
E 296 302 3
E 296 365 52
E 297 299 1
E 297 463 116
E 298 300 1
E 298 301 1
E 299 310 5
E 300 302 1
E 300 303 1
E 301 303 1
E 301 307 3
E 302 305 1
E 303 305 1
E 304 306 1
E 305 309 2
E 306 308 1
E 308 312 2
E 308 313 5
E 309 311 1
E 309 377 52
E 310 312 1
E 311 381 52
E 312 467 116
E 313 317 6
E 315 317 1
E 315 318 1
E 316 319 1
E 317 320 1
E 317 323 2
E 318 320 1
E 319 322 1
E 319 328 5
E 320 325 2
E 321 324 1
E 321 397 52
E 322 324 1
E 322 332 5
E 323 325 1
E 324 335 5
E 324 399 52
E 325 326 2
E 325 479 116
E 326 329 1
E 326 482 116
E 327 330 1
E 327 331 1
E 328 332 1
E 328 333 1
E 329 336 2
E 329 484 116
E 330 334 1
E 330 336 2
E 331 334 1
E 332 335 1
E 334 338 2
E 334 340 6
E 335 337 1
E 335 404 52
E 336 338 1
E 336 488 116
E 337 406 52
E 340 343 5
E 341 343 1
E 341 344 1
E 342 347 3
E 343 346 2
E 344 353 5
E 345 351 3
E 345 416 52
E 346 348 1
E 346 500 116
E 347 349 1
E 347 350 1
E 348 359 5
E 349 351 1
E 349 352 1
E 350 352 1
E 350 356 3
E 351 354 1
E 352 354 1
E 353 355 1
E 354 358 2
E 355 357 1
E 357 361 2
E 357 362 5
E 358 360 1
E 358 427 52
E 359 361 1
E 360 431 52
E 361 504 116
E 362 367 6
E 364 366 1
E 364 374 5
E 365 367 1
E 365 368 1
E 366 369 1
E 366 375 5
E 367 370 1
E 367 372 2
E 368 370 1
E 369 378 5
E 369 434 44
E 370 373 2
E 371 448 52
E 372 373 1
E 373 376 2
E 373 516 116
E 374 375 1
E 375 378 1
E 376 379 1
E 376 519 116
E 377 380 1
E 377 381 1
E 378 386 6
E 379 383 2
E 379 521 116
E 380 382 1
E 380 383 2
E 381 382 1
E 382 384 2
E 382 389 6
E 383 384 1
E 383 525 116
E 385 387 1
E 385 388 2
E 386 452 44
E 387 390 2
E 388 390 1
E 388 391 1
E 389 398 5
E 390 392 1
E 390 393 1
E 391 393 1
E 391 395 2
E 392 394 1
E 393 394 1
E 393 396 2
E 395 396 1
E 397 398 1
E 397 399 1
E 398 401 2
E 399 404 5
E 400 407 6
E 400 461 44
E 401 402 1
E 401 539 116
E 402 409 5
E 403 405 1
E 403 411 5
E 404 406 1
E 405 407 1
E 405 412 5
E 406 408 1
E 407 413 5
E 407 466 44
E 408 410 2
E 408 414 5
E 409 410 1
E 410 544 116
E 411 412 1
E 412 413 1
E 413 470 44
E 414 418 6
E 415 417 1
E 415 424 5
E 416 418 1
E 416 419 1
E 417 420 1
E 417 425 5
E 418 421 1
E 418 422 2
E 419 421 1
E 420 428 5
E 420 478 44
E 421 423 2
E 422 423 1
E 423 426 2
E 423 556 116
E 424 425 1
E 425 428 1
E 426 429 1
E 426 559 116
E 427 430 1
E 427 431 1
E 428 437 6
E 429 433 2
E 429 561 116
E 430 432 1
E 430 433 2
E 431 432 1
E 432 435 2
E 432 440 6
E 433 435 1
E 433 565 116
E 434 452 11
E 436 438 1
E 436 439 2
E 437 491 44
E 438 441 2
E 439 441 1
E 439 442 1
E 440 449 5
E 441 443 1
E 441 444 1
E 442 444 1
E 442 446 2
E 443 445 1
E 444 445 1
E 444 447 2
E 446 447 1
E 448 449 1
E 448 450 1
E 449 453 2
E 450 532 77
E 451 459 6
E 451 498 44
E 452 454 1
E 453 455 1
E 453 579 116
E 454 456 1
E 455 535 77
E 456 460 5
E 457 458 1
E 457 463 5
E 458 459 1
E 458 464 5
E 459 465 5
E 459 503 44
E 460 462 1
E 461 462 1
E 461 466 6
E 463 464 1
E 464 465 1
E 465 507 44
E 466 470 5
E 467 468 1
E 467 473 5
E 468 469 1
E 468 474 5
E 469 475 5
E 469 515 44
E 470 471 1
E 471 472 1
E 471 476 5
E 472 477 5
E 473 474 1
E 474 475 1
E 475 480 6
E 476 477 1
E 476 478 1
E 478 491 11
E 479 481 1
E 479 482 2
E 480 528 44
E 481 483 2
E 482 483 1
E 482 484 1
E 483 485 1
E 483 486 1
E 484 486 1
E 484 488 2
E 485 487 1
E 486 487 1
E 486 489 2
E 488 489 1
E 490 496 6
E 490 537 44
E 491 492 1
E 492 493 1
E 493 497 5
E 494 495 1
E 494 500 5
E 495 496 1
E 495 501 5
E 496 502 5
E 496 543 44
E 497 499 1
E 498 499 1
E 498 503 6
E 500 501 1
E 501 502 1
E 502 547 44
E 503 507 5
E 504 505 1
E 504 510 5
E 505 506 1
E 505 511 5
E 506 512 5
E 506 555 44
E 507 508 1
E 508 509 1
E 508 513 5
E 509 514 5
E 510 511 1
E 511 512 1
E 512 517 6
E 513 514 1
E 513 515 1
E 515 528 11
E 516 518 1
E 516 519 2
E 517 568 44
E 518 520 2
E 519 520 1
E 519 521 1
E 520 522 1
E 520 523 1
E 521 523 1
E 521 525 2
E 522 524 1
E 523 524 1
E 523 526 2
E 525 526 1
E 527 534 6
E 527 577 44
E 528 529 1
E 529 530 1
E 530 536 5
E 531 533 1
E 531 539 5
E 533 534 1
E 533 540 5
E 534 541 5
E 534 582 44
E 535 603 116
E 536 538 1
E 537 538 1
E 537 543 6
E 539 540 1
E 540 541 1
E 541 584 44
E 543 547 5
E 544 545 1
E 544 550 5
E 545 546 1
E 545 551 5
E 546 552 5
E 546 571 20
E 547 548 1
E 548 549 1
E 548 553 5
E 549 554 5
E 550 551 1
E 551 552 1
E 552 557 6
E 553 554 1
E 553 555 1
E 555 568 11
E 556 558 1
E 556 559 2
E 557 595 44
E 558 560 2
E 559 560 1
E 559 561 1
E 560 562 1
E 560 563 1
E 561 563 1
E 561 565 2
E 562 564 1
E 563 564 1
E 563 566 2
E 565 566 1
E 567 575 6
E 567 587 20
E 568 570 1
E 569 571 1
E 569 589 24
E 570 572 1
E 571 583 12
E 571 591 24
E 572 576 5
E 573 574 1
E 573 579 5
E 574 575 1
E 574 580 5
E 575 581 5
E 575 592 20
E 576 578 1
E 577 578 1
E 577 582 6
E 579 580 1
E 580 581 1
E 581 593 20
E 582 584 5
E 583 585 5
E 584 586 1
E 585 587 1
E 586 588 1
E 586 589 5
E 587 592 6
E 587 599 24
E 588 590 5
E 589 590 1
E 589 591 1
E 591 595 11
E 592 593 5
E 592 601 24
E 593 594 1
E 593 602 24
E 595 596 1
E 596 597 1
E 597 598 5
E 598 600 1
E 599 600 1
E 599 601 6
E 601 602 5
E 603 604 1
E 603 606 2
E 604 605 1
E 604 607 2
E 605 608 2
E 606 607 1
E 607 608 1
E 1 609 100000
E 2 609 100000
E 3 609 100000
E 4 610 100000
E 5 610 100000
E 6 611 100000
E 7 611 100000
E 8 612 100000
E 9 612 100000
E 10 613 100000
E 11 613 100000
E 12 613 100000
E 13 613 100000
E 14 613 100000
E 15 614 100000
E 16 614 100000
E 17 615 100000
E 18 615 100000
E 19 615 100000
E 20 615 100000
E 21 616 100000
E 22 616 100000
E 23 616 100000
E 24 616 100000
E 25 616 100000
E 26 617 100000
E 27 617 100000
E 28 618 100000
E 29 618 100000
E 30 619 100000
E 31 619 100000
E 32 620 100000
E 33 620 100000
E 34 621 100000
E 35 621 100000
E 36 621 100000
E 37 621 100000
E 38 622 100000
E 39 622 100000
E 40 623 100000
E 41 623 100000
E 42 624 100000
E 43 624 100000
E 44 625 100000
E 45 625 100000
E 46 625 100000
E 47 625 100000
E 48 625 100000
E 49 626 100000
E 50 626 100000
E 51 627 100000
E 52 627 100000
E 53 627 100000
E 54 627 100000
E 55 628 100000
E 56 628 100000
E 57 628 100000
E 58 628 100000
E 59 628 100000
E 60 629 100000
E 61 629 100000
E 62 630 100000
E 63 630 100000
E 64 631 100000
E 65 631 100000
E 66 632 100000
E 67 632 100000
E 68 633 100000
E 69 633 100000
E 70 633 100000
E 71 633 100000
E 72 634 100000
E 73 634 100000
E 74 635 100000
E 75 635 100000
E 76 636 100000
E 77 636 100000
E 78 637 100000
E 79 637 100000
E 80 637 100000
E 81 637 100000
E 82 637 100000
E 83 638 100000
E 84 638 100000
E 85 639 100000
E 86 639 100000
E 87 639 100000
E 88 639 100000
E 89 640 100000
E 90 640 100000
E 91 640 100000
E 92 640 100000
E 93 640 100000
E 94 641 100000
E 95 641 100000
E 96 642 100000
E 97 642 100000
E 98 643 100000
E 99 643 100000
E 100 644 100000
E 101 644 100000
E 102 645 100000
E 103 645 100000
E 104 645 100000
E 105 645 100000
E 106 646 100000
E 107 646 100000
E 108 647 100000
E 109 647 100000
E 110 648 100000
E 111 648 100000
E 112 649 100000
E 113 649 100000
E 114 649 100000
E 115 649 100000
E 116 649 100000
E 117 650 100000
E 118 650 100000
E 119 651 100000
E 120 651 100000
E 121 651 100000
E 122 651 100000
E 123 652 100000
E 124 652 100000
E 125 652 100000
E 126 652 100000
E 127 652 100000
E 128 653 100000
E 129 653 100000
E 130 654 100000
E 131 654 100000
E 132 655 100000
E 133 655 100000
E 134 656 100000
E 135 656 100000
E 136 657 100000
E 137 657 100000
E 138 657 100000
E 139 657 100000
E 140 658 100000
E 141 658 100000
E 142 659 100000
E 143 659 100000
E 144 660 100000
E 145 660 100000
E 146 661 100000
E 147 661 100000
E 148 661 100000
E 149 661 100000
E 150 661 100000
E 151 662 100000
E 152 662 100000
E 153 663 100000
E 154 663 100000
E 155 663 100000
E 156 663 100000
E 157 664 100000
E 158 664 100000
E 159 664 100000
E 160 664 100000
E 161 664 100000
E 162 665 100000
E 163 665 100000
E 164 666 100000
E 165 666 100000
E 166 667 100000
E 167 667 100000
E 168 668 100000
E 169 668 100000
E 170 669 100000
E 171 669 100000
E 172 669 100000
E 173 669 100000
E 174 670 100000
END

SECTION Terminals
Terminals 62
T 609
T 610
T 611
T 612
T 613
T 614
T 615
T 616
T 617
T 618
T 619
T 620
T 621
T 622
T 623
T 624
T 625
T 626
T 627
T 628
T 629
T 630
T 631
T 632
T 633
T 634
T 635
T 636
T 637
T 638
T 639
T 640
T 641
T 642
T 643
T 644
T 645
T 646
T 647
T 648
T 649
T 650
T 651
T 652
T 653
T 654
T 655
T 656
T 657
T 658
T 659
T 660
T 661
T 662
T 663
T 664
T 665
T 666
T 667
T 668
T 669
T 670
END

SECTION Tree Decomposition
c We do not guarantee that this tree decomposition has minimum width.
s td 538 20 670
b 1 670 174
b 2 610 5 4
b 3 612 9 8
b 4 668 168 169
b 5 667 166 167
b 6 614 16 15
b 7 617 27 26
b 8 618 28 29
b 9 619 30 31
b 10 620 33 32
b 11 622 39 38
b 12 660 145 144
b 13 659 143 142
b 14 623 41 40
b 15 624 43 42
b 16 656 134 135
b 17 655 133 132
b 18 626 49 50
b 19 653 129 128
b 20 629 61 60
b 21 630 62 63
b 22 631 65 64
b 23 632 66 67
b 24 648 110 111
b 25 634 73 72
b 26 635 74 75
b 27 636 77 76
b 28 644 100 101
b 29 638 83 84
b 30 641 95 94
b 31 642 96 97
b 32 643 99 98
b 33 646 107 106
b 34 647 109 108
b 35 650 117 118
b 36 654 130 131
b 37 658 140 141
b 38 611 7 6
b 39 662 151 152
b 40 666 164 165
b 41 665 162 163
b 42 174 594 608
b 43 342 36 35 347
b 44 350 356 352 347
b 45 358 354 360 427
b 46 368 370 56 365
b 47 371 18 20 448
b 48 378 386 369 375
b 49 392 394 390 165
b 50 419 22 421 416
b 51 428 425 437 420
b 52 434 162 452 369
b 53 443 445 441 131
b 54 450 532 12 448
b 55 454 162 452 456
b 56 162 452 163 456 369
b 57 452 163 456 386 369
b 58 460 462 456 151
b 59 466 407 461 470
b 60 157 212 210 664
b 61 598 600 15 597
b 62 472 477 471 152
b 63 609 2 1 3
b 64 2 542 1 532 3
b 65 607 608 604 606
b 66 485 487 483 97
b 67 492 493 128 491
b 68 497 499 117 493
b 69 503 507 459 498
b 70 509 514 508 118
b 71 512 517 511 506
b 72 522 524 520 63
b 73 529 530 94 528
b 74 475 480 474 469
b 75 596 597 595 26
b 76 536 538 83 530
b 77 543 496 547 537
b 78 549 554 548 84
b 79 552 551 546 557
b 80 562 564 560 29
b 81 569 28 571 589
b 82 570 572 60 568
b 83 576 578 49 572
b 84 582 584 534 577
b 85 588 590 586 50
b 86 594 608 5 593
b 87 602 601 16 593
b 88 605 608 604 5
b 89 164 166 369 165
b 90 170 669 176 175
b 91 172 669 176 177
b 92 179 177 180 181
b 93 185 155 153 181
b 94 186 187 229 184
b 95 189 155 154 190
b 96 194 196 190 195
b 97 200 138 137 202
b 98 204 209 202 206
b 99 208 175 160 210
b 100 211 207 278 213
b 101 218 121 120 221
b 102 220 222 217 158
b 103 230 235 221 234
b 104 244 104 103 249
b 105 252 258 249 254
b 106 260 256 327 262
b 107 267 87 86 270
b 108 269 271 266 124
b 109 279 284 270 283
b 110 293 70 69 298
b 111 19 363 615 356
b 112 301 307 298 303
b 113 309 305 377 311
b 114 316 53 52 319
b 115 318 320 90 315
b 116 328 333 332 319
b 117 1 532 3 535 12
b 118 532 3 535 12 448
b 119 462 456 151 461 152
b 120 499 117 493 118 498
b 121 538 83 530 84 537
b 122 578 49 572 50 577
b 123 600 16 599 15 597
b 124 608 604 606 5 593
b 125 3 535 12 606 448
b 126 18 363 615 20 448
b 127 590 586 26 589 50
b 128 394 390 393 165 140
b 129 445 441 444 131 106
b 130 524 523 520 38 63
b 131 477 471 476 128 152
b 132 487 486 483 72 97
b 133 333 36 34 332 319
b 134 514 508 513 94 118
b 135 554 548 553 60 84
b 136 564 563 560 4 29
b 137 601 16 599 592 593
b 138 209 121 119 202 206
b 139 196 136 138 190 195
b 140 212 214 168 210 664
b 141 235 102 104 221 234
b 142 258 87 85 249 254
b 143 284 68 70 270 283
b 144 307 51 53 298 303
b 145 363 615 356 17 20 448
b 146 669 176 171 173 177 175
b 147 16 599 592 15 597 593
b 148 599 592 587 15 597 593
b 149 592 587 15 597 575 593
b 150 356 17 20 352 448 347
b 151 17 20 352 360 448 347
b 152 20 352 360 448 13 347
b 153 171 173 177 175 180 178
b 154 173 177 175 180 178 160
b 155 177 175 180 178 160 181
b 156 175 180 178 160 210 181
b 157 535 12 606 603 455 448
b 158 214 168 364 161 210 664
b 159 604 606 603 7 5 593
b 160 525 526 521 42 383
b 161 343 340 341 80 346
b 162 344 275 341 80 353
b 163 345 416 351 35 37
b 164 505 504 511 506 64
b 165 348 359 77 80 346
b 166 349 352 351 35 347
b 167 355 58 357 288 353
b 168 501 500 495 502 75
b 169 361 504 59 357 359
b 170 362 367 58 59 357
b 171 366 364 166 369 375
b 172 494 500 495 82 76
b 173 627 51 53 54 52
b 174 372 367 373 59 67
b 175 374 364 375 161 169
b 176 376 379 519 373 57
b 177 380 377 382 45 383
b 178 381 377 382 47 311
b 179 384 382 48 42 383
b 180 385 388 387 169 227
b 181 389 382 47 48 398
b 182 391 393 395 388 231
b 183 396 393 395 140 142
b 184 482 483 479 484 326
b 185 397 321 399 47 398
b 186 400 407 140 142 461
b 187 401 539 48 398 402
b 188 403 405 144 150 411
b 189 404 335 399 21 406
b 190 408 414 410 21 406
b 191 409 410 32 21 402
b 192 412 413 405 143 411
b 193 415 417 424 134 263
b 194 418 421 416 414 422
b 195 423 421 422 426 556
b 196 429 561 433 11 426
b 197 430 427 432 433 11
b 198 431 360 427 13 432
b 199 435 14 432 8 433
b 200 436 439 135 276 438
b 201 468 467 474 98 469
b 202 440 449 14 13 432
b 203 621 36 34 35 37
b 204 465 507 107 459 464
b 205 442 444 446 439 280
b 206 447 444 446 106 108
b 207 451 106 108 459 498
b 208 453 455 579 449 14
b 209 457 458 463 110 116
b 210 473 467 474 93 101
b 211 478 476 128 420 491
b 212 481 483 479 99 97
b 213 488 484 76 336 489
b 214 490 496 74 72 537
b 215 541 584 39 534 540
b 216 510 504 511 59 67
b 217 515 513 94 469 528
b 218 518 516 520 65 63
b 219 527 534 40 38 577
b 220 531 533 539 48 42
b 221 544 545 550 410 32
b 222 585 587 15 583 4
b 223 558 560 556 29 31
b 224 566 565 563 4 6
b 225 591 571 595 26 589
b 226 663 155 154 153 156
b 227 651 121 119 120 122
b 228 639 87 85 88 86
b 229 645 102 104 103 105
b 230 657 136 138 137 139
b 231 633 68 70 69 71
b 232 580 581 574 7 579
b 233 182 180 178 158 184
b 234 183 180 184 153 181
b 235 188 155 154 153 156
b 236 155 154 153 156 181 190
b 237 191 154 193 156 243
b 238 192 154 193 190 195
b 239 197 193 255 198 195
b 240 199 136 138 137 139
b 241 201 137 139 266 205
b 242 203 137 205 202 206
b 243 573 574 579 14 8
b 244 216 121 119 120 122
b 245 215 219 160 161 210
b 246 567 587 575 4 6
b 247 223 292 226 120 122
b 248 224 226 120 221 234
b 249 225 219 161 169 227
b 250 228 388 227 159 231
b 251 232 229 147 236 238
b 252 233 187 229 149 236
b 253 237 226 234 239 304
b 254 240 236 238 144 150
b 255 241 102 104 103 105
b 256 242 245 149 236 150
b 257 246 193 148 243 255
b 258 248 245 150 411 250
b 259 247 103 105 253 315
b 260 251 103 249 253 254
b 261 257 259 255 198 126
b 262 261 250 123 134 263
b 263 264 259 126 268 127
b 264 265 87 85 88 86
b 265 272 88 86 275 341
b 266 273 86 275 270 283
b 267 274 268 127 135 276
b 268 277 439 276 125 280
b 269 281 278 285 113 287
b 270 282 278 285 115 213
b 271 286 275 283 288 353
b 272 289 285 287 110 116
b 273 291 285 116 115 294
b 274 290 68 70 69 71
b 275 295 292 226 114 304
b 276 296 69 71 302 365
b 277 297 299 463 116 294
b 278 300 69 298 302 303
b 279 306 92 308 239 304
b 280 559 561 560 426 556
b 281 312 467 93 308 310
b 282 313 317 92 93 308
b 283 314 51 53 54 52
b 284 322 324 52 332 319
b 285 323 317 325 93 101
b 286 329 484 326 79 336
b 287 555 553 60 506 568
b 288 331 327 81 262 334
b 289 330 327 334 79 336
b 290 337 34 335 37 406
b 291 338 334 82 76 336
b 292 339 36 34 35 37
b 293 548 553 60 73 547 84
b 294 486 483 484 489 72 97
b 295 390 393 388 387 165 140
b 296 441 444 439 131 438 106
b 297 117 493 129 106 118 498
b 298 471 476 128 141 152 470
b 299 508 507 513 107 94 118
b 300 163 456 151 386 369 165
b 301 523 526 521 520 38 63
b 302 49 572 61 38 50 577
b 303 586 584 26 589 39 50
b 304 83 530 95 72 84 537
b 305 493 129 128 491 106 118 498
b 306 129 128 491 131 106 118 498
b 307 530 95 94 72 84 528 537
b 308 95 94 72 84 97 528 537
b 309 572 61 60 38 50 568 577
b 310 61 60 38 50 63 568 577
b 311 456 151 386 369 165 461 152
b 312 151 386 369 165 140 461 152
b 313 425 437 417 133 424 420
b 314 551 546 557 545 31 550
b 315 370 367 373 56 57 365
b 316 222 217 219 227 158 159
b 317 217 219 178 160 227 158 159
b 318 271 266 268 276 124 125
b 319 320 317 325 90 91 315
b 320 102 104 103 105 221 234 239
b 321 104 103 105 249 221 234 239
b 322 136 138 137 139 198 190 195
b 323 138 137 139 198 190 195 202
b 324 581 574 7 579 5 575 593
b 325 437 417 133 424 420 491 131
b 326 68 70 69 71 270 283 288
b 327 70 69 71 298 270 283 288
b 328 480 474 99 97 469 528
b 329 517 511 65 63 506 568
b 330 207 278 112 205 206 213
b 331 256 327 78 262 253 254
b 332 354 352 360 427 10 351
b 333 305 377 311 44 302 303
b 334 87 85 88 86 270 249 254
b 335 85 88 86 262 270 249 254
b 336 458 463 110 116 108 459 464
b 337 121 119 120 122 202 206 221
b 338 119 120 122 202 206 213 221
b 339 546 557 545 28 31 550 571
b 340 12 606 603 455 449 613 448
b 341 187 229 149 236 184 153 156
b 342 516 519 520 373 65 67 63
b 343 51 53 54 52 311 298 303
b 344 53 54 52 319 311 298 303
b 345 533 539 534 540 48 40 42
b 346 36 34 332 319 35 37 347
b 347 34 332 319 335 35 37 347 406
b 348 565 563 561 8 433 4 6
b 349 563 561 560 8 433 4 6 29
b 350 496 74 495 502 547 72 537
b 351 324 52 321 332 319 335 399
b 352 54 52 321 319 47 311 298 303
b 353 557 545 28 29 31 550 571 595
b 354 23 22 421 616 11 426
b 355 661 146 147 149 150 148
b 356 628 55 56 57 58 59
b 357 625 46 47 44 48 45
b 358 637 78 81 80 82 79
b 359 640 89 90 91 92 93
b 360 649 112 113 116 114 115
b 361 652 123 126 127 124 125
b 362 379 519 521 45 383 373 57
b 363 407 413 405 140 142 461 470
b 364 168 364 166 161 169 210 664
b 365 364 166 369 375 161 169 210 664
b 366 587 15 597 583 575 4 6 593
b 367 15 597 27 583 575 4 6 593
b 368 180 178 160 210 158 184 153 181
b 369 154 193 153 156 181 243 190 195
b 370 483 479 484 326 489 99 72 97
b 371 393 395 388 387 165 231 140 142
b 372 386 369 375 167 165 140 461 152
b 373 444 446 439 131 438 280 106 108
b 374 24 416 616 414 37 406
b 375 25 616 414 422 550 410
b 376 100 467 101 98 111 310
b 377 33 422 556 31 550 32
b 378 30 545 28 31 32 41
b 379 43 539 32 41 402 42
b 380 96 513 107 97 98 469
b 381 145 143 144 411 250 134
b 382 109 107 98 108 111 464
b 383 9 603 455 7 579 8
b 384 62 553 63 506 64 73
b 385 130 476 132 141 420 131
b 386 66 504 67 359 64 77
b 387 340 341 81 334 80 82 346
b 388 299 463 116 111 114 294 310
b 389 507 513 107 94 118 459 464 498
b 390 584 26 589 39 534 540 50 577
b 391 146 229 147 149 158 184 150 148
b 392 526 521 520 40 42 383 38 63
b 393 166 369 375 167 165 161 169 210 664
b 394 597 27 583 575 4 6 593 595 26
b 395 583 575 4 6 593 29 571 595 26
b 396 446 439 131 438 280 287 110 106 108
b 397 395 388 387 165 231 238 140 142 144
b 398 479 484 326 489 325 99 101 72 97
b 399 500 495 502 75 77 82 346 76
b 400 22 421 416 616 10 11 351 426
b 401 476 128 132 141 152 420 470 491 131
b 402 413 405 143 140 142 411 461 141 470
b 403 405 143 140 142 144 150 411 461 141 470
b 404 219 178 160 161 169 210 227 158 159
b 405 553 60 63 506 568 64 73 547 84
b 406 52 321 332 319 335 399 47 311 298 303
b 407 321 332 319 335 399 47 311 398 298 303
b 408 245 149 236 150 411 250 148 243
b 409 259 255 123 198 126 268 127 263
b 410 292 226 120 122 114 115 294 304
b 411 352 360 427 448 13 10 351 35 347
b 412 360 427 448 13 432 10 351 35 347
b 413 427 448 13 432 433 10 11 351 35 347
b 414 103 105 249 253 254 315 221 234 239
b 415 105 92 249 253 254 315 221 234 239
b 416 88 86 275 341 81 262 270 249 254
b 417 86 275 341 81 262 270 283 249 254
b 418 574 7 579 5 14 8 575 6 593
b 419 137 139 266 198 190 195 205 202 206
b 420 139 266 198 126 190 195 205 202 206
b 421 69 71 298 302 303 365 270 283 288
b 422 71 58 298 302 303 365 270 283 288
b 423 606 603 455 7 5 449 613 448 593
b 424 603 455 7 579 5 449 613 448 8 593
b 425 455 7 579 5 449 14 613 448 8 593
b 426 7 579 5 449 14 613 448 8 575 6 593
b 427 5 449 14 613 448 8 575 4 6 593
b 428 449 14 613 448 13 432 8 575 4 6 593
b 429 14 613 448 13 432 8 433 575 4 6 593
b 430 613 448 13 432 8 433 575 4 6 593 10 11
b 431 369 375 167 165 161 169 210 664 140 461 152
b 432 167 387 165 161 169 210 664 140 461 152
b 433 178 160 161 169 210 227 158 159 184 153 181
b 434 160 161 169 210 227 664 158 159 184 153 181
b 435 417 133 424 134 263 132 420 491 131
b 436 133 424 134 263 132 420 491 131 135 438
b 437 424 127 134 263 132 420 491 131 135 438
b 438 504 511 59 67 357 359 506 64 77
b 439 467 474 93 101 308 98 469 111 310
b 440 74 495 502 75 547 76 489 72 537
b 441 495 502 75 77 547 82 346 76 489 72 537
b 442 502 75 73 77 547 82 346 76 489 72 537
b 443 75 64 73 77 547 82 346 76 489 72 537
b 444 421 416 616 414 422 10 11 351 426 556
b 445 226 120 122 114 115 221 234 239 294 304
b 446 463 110 116 108 111 114 294 310 459 464
b 447 545 28 29 31 550 571 595 410 32 41
b 448 511 59 65 67 357 359 63 506 568 64 77
b 449 28 29 31 550 571 595 410 589 39 32 41
b 450 46 399 47 44 21 48 398 402 45
b 451 55 56 57 58 59 357 359 80 353
b 452 519 521 520 45 383 373 57 65 67 63
b 453 561 560 8 433 4 6 11 426 556 29
b 454 560 8 433 4 6 11 426 556 29 31
b 455 193 153 148 156 181 243 255 198 190 195
b 456 474 93 99 101 308 97 98 469 528 111 310
b 457 377 382 47 311 44 45 383 302 303
b 458 382 47 311 44 48 398 42 45 383 302 303
b 459 367 373 56 57 58 365 59 67 357
b 460 278 285 112 113 205 287 115 206 213
b 461 317 325 90 91 92 315 93 101 308
b 462 327 78 81 262 334 79 336 253 254
b 463 89 90 91 92 93 308 114 304 310
b 464 539 32 41 534 540 48 398 402 40 42
b 465 128 132 141 152 420 470 491 131 106 118 498
b 466 285 112 113 205 287 110 116 115 206 213 294
b 467 112 113 124 205 287 110 116 114 115 206 213 294
b 468 229 147 149 236 158 184 238 150 153 148 156
b 469 147 149 236 158 159 184 231 238 150 153 148 156
b 470 60 38 50 63 506 568 577 64 73 547 84
b 471 78 81 262 334 80 82 79 336 90 253 254
b 472 521 520 40 42 45 383 373 57 65 67 38 63
b 473 448 13 432 8 433 575 4 6 593 10 11 351 35 347
b 474 275 341 81 262 80 270 283 288 353 249 254
b 475 416 616 414 422 10 11 351 426 556 35 37 406
b 476 388 387 165 169 227 159 231 238 140 142 144
b 477 120 122 114 115 202 206 213 221 234 239 294 304
b 478 113 124 125 205 280 287 110 116 114 115 206 213 294
b 479 341 81 262 334 80 82 270 283 288 346 353 249 254
b 480 439 131 135 276 438 125 280 287 110 106 108
b 481 484 326 76 79 336 489 325 99 101 72 97
b 482 326 76 79 336 489 325 91 99 101 72 97
b 483 513 107 94 97 98 469 528 118 459 464 498
b 484 107 94 97 98 469 528 106 108 111 118 459 464 498
b 485 143 140 142 144 150 411 461 250 134 132 141 470
b 486 8 433 575 4 6 593 10 11 351 426 556 29 31 35 347
b 487 149 236 158 159 184 231 238 150 411 250 153 148 156 243
b 488 236 158 159 184 231 238 144 150 411 250 153 148 156 243
b 489 387 165 161 169 210 227 664 159 231 238 140 142 144 461 152
b 490 161 169 210 227 664 158 159 184 231 238 140 142 144 461 153 181 152
b 491 158 159 184 231 238 140 142 144 150 411 461 250 153 148 156 181 243 152
b 492 140 142 144 150 411 461 250 153 148 156 181 243 134 132 141 152 470
b 493 250 153 148 156 181 243 123 134 263 132 141 152 470
b 494 575 4 6 593 10 11 351 426 556 29 31 571 595 26 35 347
b 495 266 198 126 190 195 268 276 124 125 205 202 206
b 496 332 319 335 399 47 311 35 37 347 398 406 298 303
b 497 335 399 47 311 21 35 37 347 398 406 298 303
b 498 399 47 311 44 21 35 37 48 347 398 402 406 45 298 303
b 499 47 311 44 21 35 37 48 347 398 402 406 42 45 383 298 302 303
b 500 44 21 35 37 48 347 398 402 406 42 45 383 56 298 302 303
b 501 616 414 422 10 11 351 426 556 550 410 21 35 37 406
b 502 422 10 11 351 426 556 31 550 410 32 21 35 37 406
b 503 10 11 351 426 556 29 31 550 571 595 410 26 32 21 35 37 347 406
b 504 29 31 550 571 595 410 26 589 39 32 41 21 35 37 347 406
b 505 410 26 589 39 32 41 21 35 37 347 402 406
b 506 81 262 334 80 82 270 283 288 346 353 79 336 90 249 253 254
b 507 334 80 82 270 283 288 346 353 76 79 336 90 249 253 254
b 508 153 148 156 181 243 255 123 198 190 195 134 263 132 141 152 470
b 509 255 123 198 126 190 195 268 127 134 263 132 141 152 470
b 510 123 198 126 190 195 268 127 134 263 132 141 152 470 124 125
b 511 26 589 39 32 41 534 540 21 35 37 347 402 406 50 577
b 512 39 32 41 534 540 21 35 37 347 402 406 38 50 577
b 513 32 41 534 540 21 35 37 48 347 398 402 406 40 42 38 50 577
b 514 21 35 37 48 347 398 402 406 40 42 45 383 56 298 302 303 38 50 577
b 515 40 42 45 383 373 56 57 298 302 303 65 67 38 50 63 577
b 516 373 56 57 58 298 302 303 365 59 65 67 357 38 50 63 577
b 517 94 72 84 97 98 469 528 537 106 108 111 118 459 464 498
b 518 198 126 190 195 268 127 134 263 132 141 152 470 276 124 125 205 202 206
b 519 268 127 134 263 132 141 152 470 135 276 124 125 205 202 206
b 520 127 134 263 132 141 152 420 470 491 131 135 276 438 124 125 205 202 206
b 521 132 141 152 420 470 491 131 135 276 438 124 125 205 106 118 202 206 498
b 522 131 135 276 438 124 125 205 280 287 110 106 108 118 202 206 498
b 523 124 125 205 280 287 110 116 106 108 114 115 118 202 206 213 294 498
b 524 110 116 106 108 111 114 115 118 202 206 213 294 310 459 464 498
b 525 56 57 58 298 302 303 365 59 65 67 357 359 38 50 63 577 80 353
b 526 58 298 302 303 365 59 65 67 357 359 38 50 63 577 80 270 283 288 353
b 527 59 65 67 357 359 38 50 63 506 568 577 64 77 80 270 283 288 353
b 528 359 38 50 63 506 568 577 64 77 80 270 283 288 346 353
b 529 38 50 63 506 568 577 64 73 77 547 80 270 283 288 346 353 84
b 530 64 73 77 547 80 82 270 283 288 346 353 76 489 72 84 537
b 531 80 82 270 283 288 346 353 76 79 336 489 90 249 253 254 72 84 537
b 532 76 79 336 489 325 90 91 249 253 254 99 101 72 84 97 537
b 533 325 90 91 92 249 253 254 315 93 99 101 308 72 84 97 537
b 534 90 91 92 249 253 254 315 93 99 101 308 72 84 97 537 114 304 310
b 535 92 249 253 254 315 93 99 101 308 72 84 97 537 114 221 234 239 304 310
b 536 93 99 101 308 72 84 97 98 469 528 537 111 114 221 234 239 304 310
b 537 72 84 97 98 469 528 537 106 108 111 114 118 221 234 239 304 310 459 464 498
b 538 106 108 111 114 115 118 202 206 213 221 234 239 294 304 310 459 464 498
1 42
42 86
86 124
124 159
159 423
423 424
424 425
425 426
426 427
427 428
428 429
429 430
430 473
473 486
486 494
494 503
503 502
503 504
502 501
504 505
501 475
505 511
511 512
512 513
513 514
514 500
500 499
499 498
514 515
515 516
516 525
525 526
526 527
527 528
528 529
498 497
529 530
530 531
531 507
507 506
506 479
531 532
532 533
533 534
534 535
535 536
536 537
537 517
537 538
538 524
517 484
524 523
523 478
523 522
522 521
521 520
520 519
519 518
518 510
510 509
497 496
478 467
518 495
509 508
508 493
493 492
492 491
491 488
488 487
491 490
490 489
492 485
487 469
499 458
515 472
527 448
529 470
530 443
506 471
479 474
532 482
536 456
538 477
484 483
504 449
522 480
521 465
467 466
490 434
489 476
434 433
469 468
443 442
442 441
482 481
473 413
486 454
454 453
524 446
520 437
437 436
496 407
407 406
508 455
475 444
489 432
432 431
485 403
472 452
477 445
513 464
449 447
466 460
426 418
436 435
433 404
441 440
481 398
413 412
431 393
403 402
476 397
498 450
412 411
516 459
525 451
526 422
422 421
533 461
534 463
535 415
415 414
494 395
495 420
420 419
458 457
448 438
470 405
471 462
474 417
456 439
417 416
480 396
465 401
406 352
455 369
431 372
445 410
447 353
397 371
393 365
468 391
433 368
398 370
395 394
453 349
441 399
396 373
394 367
367 366
509 409
496 347
444 400
487 408
511 390
472 392
483 389
446 336
446 388
406 351
423 340
452 342
452 362
464 345
418 324
435 325
404 317
440 350
402 363
421 327
414 321
419 323
416 335
352 344
372 312
353 339
365 364
349 348
347 346
468 341
327 326
321 320
323 322
335 334
344 343
312 311
479 387
517 308
308 307
470 310
310 309
477 338
338 337
465 306
306 305
464 379
447 378
460 330
450 357
411 152
411 332
459 315
451 356
461 319
463 359
457 333
438 386
405 293
405 384
462 331
439 376
401 298
401 385
369 236
371 295
391 355
368 156
370 294
373 296
400 354
390 303
392 301
389 299
340 157
325 313
317 316
339 314
364 158
311 300
307 304
309 302
305 297
152 151
156 155
151 150
155 154
154 153
424 383
484 382
502 377
510 361
501 375
467 360
495 318
366 149
149 148
148 147
475 374
485 381
448 329
471 358
456 328
483 380
466 273
466 272
476 180
476 250
468 251
428 202
481 213
481 286
413 197
454 223
453 196
453 280
407 185
455 239
455 257
444 194
444 195
403 188
445 248
445 253
464 187
447 221
460 269
460 270
418 243
435 193
404 245
404 249
412 198
429 199
402 192
411 166
459 170
459 174
421 276
421 278
461 282
461 285
414 259
414 260
419 242
419 241
457 177
457 178
438 164
438 169
438 216
405 287
462 288
462 289
417 266
439 201
439 210
439 281
416 265
401 211
526 167
369 237
369 238
410 247
410 275
371 182
371 183
365 171
365 175
368 233
368 234
370 212
370 184
349 136
399 168
399 172
373 205
373 206
409 261
409 263
347 290
366 246
408 256
408 258
390 215
392 160
389 204
336 209
528 165
388 277
351 284
342 218
362 176
345 220
324 232
350 214
363 186
348 224
346 133
346 203
346 292
341 252
326 143
326 231
326 274
320 141
320 229
320 255
322 230
322 240
322 139
334 142
334 228
334 264
497 189
343 144
343 173
343 283
311 119
387 161
337 138
337 227
337 244
293 135
298 131
296 129
507 291
303 127
301 130
299 134
157 125
366 222
158 140
300 57
304 121
302 122
297 120
150 145
294 132
236 226
153 146
295 128
236 235
147 123
147 137
535 279
537 207
125 118
57 56
118 117
145 126
425 208
504 225
519 267
501 190
505 191
493 262
475 163
488 254
458 179
458 181
474 162
474 271
513 219
483 217
480 200
480 268
120 68
305 67
393 89
124 88
372 48
394 75
400 50
390 84
389 69
350 77
363 59
327 110
321 104
323 97
344 114
346 43
341 94
334 107
307 73
309 82
337 101
330 100
332 45
315 46
319 115
333 113
331 106
236 93
236 95
156 99
313 51
316 102
314 79
155 92
150 44
318 108
146 91
124 65
329 71
328 74
128 49
136 80
133 116
143 109
141 103
139 96
142 105
144 112
122 83
119 58
138 98
135 78
131 62
129 53
121 76
130 72
134 70
118 54
56 55
56 52
145 111
132 66
146 90
123 61
137 87
117 64
64 63
126 47
140 60
127 85
449 81
442 25
442 27
446 24
437 16
436 17
403 13
403 37
464 14
447 8
418 38
440 26
380 31
393 5
381 12
89 40
377 10
122 18
119 39
297 35
385 36
376 28
384 21
386 23
527 22
394 7
379 15
309 20
308 30
364 4
306 19
378 9
304 29
382 34
147 6
536 32
56 41
484 33
383 3
427 2
512 11
END

EOF
